
Log started (V12.10.0.0) Fri Apr  9 01:25:36 2021


Problem 'asset.lp' read.
Read time = 0.01 sec. (0.19 ticks)
New value for default parallel thread count: 1
New value for time limit in seconds: 150
Version identifier: 12.10.0.0 | 2019-11-26 | 843d4de
CPXPARAM_Threads                                 1
CPXPARAM_TimeLimit                               150
Found incumbent of value 0.000000 after 0.00 sec. (0.05 ticks)
Tried aggregator 3 times.
MIP Presolve eliminated 830 rows and 362 columns.
MIP Presolve modified 1404 coefficients.
Aggregator did 527 substitutions.
Reduced MIP has 516 rows, 711 columns, and 2863 nonzeros.
Reduced MIP has 650 binaries, 35 generals, 0 SOSs, and 0 indicators.
Presolve time = 0.01 sec. (6.73 ticks)
Probing fixed 45 vars, tightened 0 bounds.
Probing time = 0.00 sec. (2.06 ticks)
Cover probing fixed 0 vars, tightened 3 bounds.
Tried aggregator 1 time.
Detecting symmetries...
MIP Presolve eliminated 56 rows and 50 columns.
MIP Presolve modified 70 coefficients.
Reduced MIP has 460 rows, 661 columns, and 2474 nonzeros.
Reduced MIP has 600 binaries, 35 generals, 0 SOSs, and 0 indicators.
Presolve time = 0.00 sec. (2.63 ticks)
Probing time = 0.00 sec. (1.70 ticks)
Clique table members: 1652.
MIP emphasis: balance optimality and feasibility.
MIP search method: dynamic search.
Parallel mode: none, using 1 thread.
Root relaxation solution time = 0.01 sec. (5.26 ticks)

        Nodes                                         Cuts/
   Node  Left     Objective  IInf  Best Integer    Best Bound    ItCnt     Gap

*     0+    0                            0.0000      156.0000              --- 
      0     0      145.0000   128        0.0000      145.0000      279     --- 
      0     0      140.3760   128        0.0000     Cuts: 215      606     --- 
      0     0      139.7541   128        0.0000     Cuts: 196      873     --- 
      0     0      139.1862   128        0.0000     Cuts: 160     1033     --- 
      0     0      138.9265   128        0.0000     Cuts: 108     1225     --- 
      0     0      138.7009   128        0.0000     Cuts: 137     1392     --- 
      0     0      138.4815   128        0.0000     Cuts: 141     1517     --- 
      0     0      138.3333   128        0.0000     Cuts: 138     1618     --- 
      0     0      137.6364   128        0.0000     Cuts: 122     1760     --- 
      0     0      137.6364   128        0.0000     Cuts: 112     1869     --- 
      0     0      137.5000   128        0.0000      Cuts: 49     1910     --- 
      0     0      137.5000   128        0.0000     Cuts: 182     2018     --- 
*     0+    0                          106.0000      137.5000            29.72%
      0     0        cutoff            106.0000      137.5000     2018   29.72%
      0     2      137.5000    63      106.0000      137.5000     2018   29.72%
Elapsed time = 0.22 sec. (210.53 ticks, tree = 0.01 MB, solutions = 1)
*    80+   76                          108.0000      137.5000            27.31%
*   146   128      integral     0      114.0000      137.5000     5282   20.61%
*   148   120      integral     0      116.0000      137.5000     5303   18.53%
    411   358      131.2952    70      116.0000      137.5000     9296   18.53%
*   472+  340                          120.0000      137.5000            14.58%
*   472+  288                          122.0000      137.5000            12.70%

Performing restart 1

Repeating presolve.
Tried aggregator 1 time.
MIP Presolve eliminated 4 rows and 3 columns.
MIP Presolve modified 491 coefficients.
Reduced MIP has 456 rows, 658 columns, and 2125 nonzeros.
Reduced MIP has 597 binaries, 35 generals, 0 SOSs, and 0 indicators.
Presolve time = 0.00 sec. (2.18 ticks)
Tried aggregator 1 time.
MIP Presolve modified 16 coefficients.
Reduced MIP has 456 rows, 658 columns, and 2125 nonzeros.
Reduced MIP has 597 binaries, 35 generals, 0 SOSs, and 0 indicators.
Presolve time = 0.00 sec. (1.72 ticks)
Represolve time = 0.01 sec. (10.44 ticks)
    582     0      135.4449   160      122.0000     Cuts: 214    13393   11.02%
    582     0      132.4000   160      122.0000     Cuts: 191    13634    8.52%
    582     0      132.1395   160      122.0000     Cuts: 105    13741    8.31%
    582     0      132.0000   160      122.0000      Cuts: 65    13867    8.20%
    582     0      132.0000   160      122.0000     Cuts: 127    14065    8.20%
    582     0      132.0000   160      122.0000      Cuts: 40    14179    8.20%
    582     0      132.0000   160      122.0000     Cuts: 116    14337    8.20%
    582     0      132.0000   160      122.0000      Cuts: 11    14429    8.20%
    582     0      132.0000   160      122.0000     Cuts: 153    14552    8.20%
    582     0      132.0000   160      122.0000      Cuts: 28    14624    8.20%
    582     0      132.0000   160      122.0000     Cuts: 131    14782    8.20%
*   582+    0                          124.0000      132.0000             6.45%
    582     2      132.0000    67      124.0000      132.0000    14782    6.45%
    594    12      131.0000    76      124.0000      132.0000    15627    6.45%
    612    24      127.9949    77      124.0000      132.0000    16760    6.45%
    669    54      131.0000    94      124.0000      132.0000    19104    6.45%
    711    84      131.0000    58      124.0000      131.4449    20982    6.00%
    782   144      130.0000    77      124.0000      131.0000    24044    5.65%
    865   213      130.0000    58      124.0000      131.0000    28413    5.65%
    909   236      130.0000    69      124.0000      131.0000    31555    5.65%
   1081   343      130.0000   110      124.0000      131.0000    47995    5.65%
Elapsed time = 3.69 sec. (4318.27 ticks, tree = 0.42 MB, solutions = 7)
   1206   414      130.5000   101      124.0000      131.0000    62924    5.65%
   1328   473      129.0000    94      124.0000      130.5000    76851    5.24%
   1531   591      128.0000    74      124.0000      130.0000    90576    4.84%
   1682   631      127.5000    83      124.0000      130.0000   104949    4.84%
   1823   678      129.8182   111      124.0000      130.0000   122520    4.84%
   1936   717      126.9760   113      124.0000      130.0000   139426    4.84%
   2077   772      128.8000   109      124.0000      130.0000   154021    4.84%
   2182   818      128.8546   100      124.0000      130.0000   166457    4.84%
   2287   856      126.9018   111      124.0000      130.0000   182296    4.84%
   2455   899      126.8799    65      124.0000      129.8091   199238    4.68%
Elapsed time = 11.80 sec. (14058.32 ticks, tree = 0.84 MB, solutions = 7)
   2612   929      126.5944   109      124.0000      129.5891   217679    4.51%
   2765   967      128.0000   109      124.0000      129.4829   235294    4.42%
   2884   992      127.3634   129      124.0000      129.3736   252415    4.33%
   3049  1021      128.0000    95      124.0000      129.2037   269051    4.20%
   3177  1032      128.0000   111      124.0000      129.0523   287501    4.07%
   3314  1060      127.0768    79      124.0000      129.0000   303413    4.03%
   3477  1079      127.6746   101      124.0000      128.9290   321995    3.97%
   3608  1103      128.0000   107      124.0000      128.8372   336269    3.90%
   3747  1141      126.7269    99      124.0000      128.7721   352670    3.85%
   4052  1231      126.4132    90      124.0000      128.6667   372981    3.76%
Elapsed time = 19.58 sec. (23660.30 ticks, tree = 1.15 MB, solutions = 7)
   4222  1271      127.0000   104      124.0000      128.5882   390703    3.70%
   4361  1325        cutoff            124.0000      128.5882   407410    3.70%
   4515  1281      127.2651   104      124.0000      128.3333   424852    3.49%
   4671  1240      128.0000    55      124.0000      128.0594   442147    3.27%
   4905  1202      126.4359   116      124.0000      128.0000   461198    3.23%
   5082  1169      127.8005    73      124.0000      128.0000   482139    3.23%
   5252  1147        cutoff            124.0000      128.0000   502260    3.23%
   5438  1138        cutoff            124.0000      128.0000   522902    3.23%
   5566  1128        cutoff            124.0000      128.0000   543269    3.23%
   5706  1081        cutoff            124.0000      127.9827   563515    3.21%
Elapsed time = 27.54 sec. (33436.72 ticks, tree = 0.97 MB, solutions = 7)
   5893  1012      126.6531    87      124.0000      127.8235   582636    3.08%
   6128   940      126.0000    83      124.0000      127.6471   601646    2.94%
   6344   900      126.0000    92      124.0000      127.5140   620101    2.83%
   6602   767        cutoff            124.0000      127.2561   639191    2.63%
   6881   614      126.9506    95      124.0000      126.9988   659247    2.42%
   7169   458        cutoff            124.0000      126.5636   678734    2.07%
   7739   186        cutoff            124.0000      126.0000   698520    1.61%

GUB cover cuts applied:  95
Clique cuts applied:  117
Cover cuts applied:  28
Implied bound cuts applied:  43
Flow cuts applied:  8
Mixed integer rounding cuts applied:  109
Zero-half cuts applied:  22
Lift and project cuts applied:  11
Gomory fractional cuts applied:  8

Root node processing (before b&c):
  Real time             =    0.22 sec. (210.64 ticks)
Sequential b&c:
  Real time             =   33.53 sec. (40791.28 ticks)
                          ------------
Total (root+branch&cut) =   33.76 sec. (41001.93 ticks)

Solution pool: 8 solutions saved.

MIP - Integer optimal solution:  Objective =  1.2400000000e+02
Solution time =   33.76 sec.  Iterations = 718171  Nodes = 8038
Deterministic time = 41001.93 ticks  (1214.68 ticks/sec)


Incumbent solution
Variable Name           Solution Value
F                           124.000000
y8                            1.000000
y9                            1.000000
y14                           1.000000
y15                           1.000000
y18                           1.000000
y23                           1.000000
y50                           1.000000
y59                           1.000000
y68                           1.000000
y70                           1.000000
y71                           1.000000
y90                           1.000000
y97                           1.000000
y104                          1.000000
y108                          1.000000
y116                          1.000000
y124                          1.000000
y135                          1.000000
y150                          1.000000
y166                          1.000000
x2x90x1                       1.000000
x85x70x1                      1.000000
x90x15x1                      1.000000
x118x59x1                     1.000000
x118x108x1                    1.000000
x138x124x1                    1.000000
x85x9x2                       1.000000
x98x68x2                      1.000000
x172x116x2                    2.000000
x2x90x3                       1.000000
x82x104x3                     1.000000
x90x166x3                     1.000000
x98x68x3                      1.000000
x119x18x3                     2.000000
x138x124x3                    1.000000
x152x104x3                    1.000000
x116x8x2                      2.000000
x8x0x2                        2.000000
x9x0x2                        1.000000
x104x9x3                      1.000000
x9x14x3                       1.000000
x15x14x1                      1.000000
x14x0x1                       1.000000
x14x0x3                       1.000000
x15x135x1                     1.000000
x18x59x3                      1.000000
x18x108x3                     1.000000
x124x23x1                     1.000000
x23x0x1                       1.000000
x68x23x3                      1.000000
x23x0x3                       1.000000
x59x50x1                      1.000000
x50x0x1                       1.000000
x59x50x3                      1.000000
x50x0x3                       1.000000
x68x150x2                     1.000000
x70x97x1                      1.000000
x104x70x3                     1.000000
x70x97x3                      1.000000
x108x71x3                     1.000000
x166x71x3                     1.000000
x71x0x3                       2.000000
x97x0x1                       1.000000
x97x0x3                       1.000000
x108x0x1                      1.000000
x124x150x3                    1.000000
x135x0x1                      1.000000
x166x135x3                    1.000000
x135x0x3                      1.000000
x150x0x2                      1.000000
x150x0x3                      1.000000
s2                            4.970554
s9                            7.920936
s14                           9.300000
s15                           7.790000
z2z15z1                       1.000000
s18                           6.633853
s23                           8.830000
s31                           6.000000
s36                           7.490000
z2z36z1                       1.000000
s37                           6.650000
s49                           7.680000
s50                           9.260000
s51                           7.720000
s59                           8.131246
s68                           7.298459
s70                           7.580000
s71                           9.490000
z2z71z3                       1.000000
s73                           6.000000
s77                           6.000000
s90                           6.206810
z2z90z1                       1.000000
z2z90z3                       1.000000
s97                           8.615901
s100                          7.860000
s104                          6.150000
s108                          8.130821
s122                          7.780000
z2z122z1                      1.000000
s124                          7.637107
s135                          9.240000
s136                          6.310000
s148                          7.600000
s150                          8.700000
s166                          7.607679
z2z166z3                      1.000000
s170                          7.810000
z2z170z1                      1.000000
s176                          6.530000
s8                            8.628126
s40                           9.050000
s83                           8.830000
s116                          7.461059
s168                          8.870000
s82                           4.653448
z82z18z3                      1.000000
z82z71z3                      1.000000
z82z104z3                     1.000000
z82z166z3                     1.000000
s84                           6.000000
s85                           5.808078
z85z8z2                       1.000000
z85z9z2                       1.000000
z85z15z1                      1.000000
z85z36z1                      1.000000
z85z40z2                      1.000000
z85z70z1                      1.000000
z85z83z2                      1.000000
z85z122z1                     1.000000
z85z168z2                     1.000000
z85z170z1                     1.000000
z90z15z1                      1.000000
z90z71z3                      1.000000
z90z166z3                     1.000000
s98                           5.776593
z98z8z2                       1.000000
z98z40z2                      1.000000
z98z68z2                      1.000000
z98z68z3                      1.000000
z98z71z3                      1.000000
z98z83z2                      1.000000
z98z168z2                     1.000000
s118                          5.885962
z118z15z1                     1.000000
z118z36z1                     1.000000
z118z59z1                     1.000000
z118z108z1                    1.000000
z118z122z1                    1.000000
z118z170z1                    1.000000
s119                          4.956910
z119z18z3                     1.000000
z119z71z3                     1.000000
z119z166z3                    1.000000
s138                          5.994860
z138z15z1                     1.000000
z138z36z1                     1.000000
z138z71z3                     1.000000
z138z122z1                    1.000000
z138z124z1                    1.000000
z138z124z3                    1.000000
z138z170z1                    1.000000
s152                          4.560000
z152z18z3                     1.000000
z152z71z3                     1.000000
z152z104z3                    1.000000
z152z166z3                    1.000000
s172                          5.906404
z172z8z2                      1.000000
z172z40z2                     1.000000
z172z83z2                     1.000000
z172z116z2                    1.000000
z172z168z2                    1.000000
z9z14z3                       1.000000
z15z14z1                      1.000000
z15z135z1                     1.000000
z18z59z3                      1.000000
z18z71z3                      1.000000
z18z108z3                     1.000000
z37z40z2                      1.000000
z59z50z1                      1.000000
z59z50z3                      1.000000
z68z23z3                      1.000000
z68z150z2                     1.000000
z70z97z1                      1.000000
z70z97z3                      1.000000
z100z71z3                     1.000000
z104z9z3                      1.000000
z104z70z3                     1.000000
z104z71z3                     1.000000
z108z71z3                     1.000000
z116z8z2                      1.000000
z116z40z2                     1.000000
z116z83z2                     1.000000
z116z168z2                    1.000000
z124z23z1                     1.000000
z124z150z3                    1.000000
z136z40z2                     1.000000
z136z71z3                     1.000000
z136z168z2                    1.000000
z166z71z3                     1.000000
z166z135z3                    1.000000
s169                          6.000000
z176z71z3                     1.000000
All other variables in the range 1-1604 are 0.
